9320
0, 21, 31, 17, 2, 16, 20, 30, 34, 38, 39, 37, 36, 45, 24, 3, 5, 4, 14, 23, 47, 11, 27, 25, 26, 46, 12, 13, 51, 10, 50, 32, 42, 8, 9, 7, 40, 18, 44, 1, 6, 41, 15, 28, 29, 22, 19, 49, 43, 33, 35, 48
